NAME 
OBJSENSE MAX
ROWS
 N  OBJ
 L  packing[0]
 L  packing[1]
 L  packing[2]
 L  packing[3]
 L  packing[4]
 L  packing[5]
 L  packing[6]
 L  packing[7]
 L  packing[8]
 L  packing[9]
 L  packing[10]
 L  packing[11]
 L  packing[12]
 L  packing[13]
 L  packing[14]
 L  packing[15]
 L  packing[16]
 L  packing[17]
 L  packing[18]
 L  packing[19]
 L  packing[20]
 L  packing[21]
 L  packing[22]
 L  packing[23]
 L  packing[24]
 L  packing[25]
 L  packing[26]
 L  packing[27]
 L  packing[28]
 L  packing[29]
 L  packing[30]
 L  packing[31]
 L  packing[32]
 L  packing[33]
 L  packing[34]
 L  packing[35]
 L  packing[36]
 L  packing[37]
 L  packing[38]
 L  packing[39]
 L  packing[40]
 L  packing[41]
 L  packing[42]
 L  packing[43]
 L  packing[44]
 L  packing[45]
 L  packing[46]
 L  packing[47]
 L  packing[48]
 L  packing[49]
 L  R52     
COLUMNS
    MARKER    'MARKER'                 'INTORG'
    x[1]      OBJ       70
    x[1]      packing[0]  107
    x[1]      packing[1]  105
    x[1]      packing[2]  151
    x[1]      packing[3]  51
    x[1]      packing[5]  40
    x[1]      packing[7]  55
    x[1]      packing[8]  60
    x[1]      packing[9]  150
    x[1]      packing[11]  96
    x[1]      packing[12]  196
    x[1]      packing[14]  158
    x[1]      packing[15]  179
    x[1]      packing[16]  117
    x[1]      packing[17]  21
    x[1]      packing[18]  93
    x[1]      packing[19]  128
    x[1]      packing[20]  2
    x[1]      packing[21]  83
    x[1]      packing[23]  20
    x[1]      packing[24]  187
    x[1]      packing[25]  176
    x[1]      packing[26]  91
    x[1]      packing[29]  44
    x[1]      packing[30]  142
    x[1]      packing[33]  34
    x[1]      packing[34]  118
    x[1]      packing[35]  56
    x[1]      packing[36]  13
    x[1]      packing[38]  183
    x[1]      packing[39]  63
    x[1]      packing[40]  35
    x[1]      packing[41]  30
    x[1]      packing[43]  73
    x[1]      packing[44]  120
    x[1]      packing[45]  58
    x[1]      packing[46]  175
    x[1]      packing[47]  105
    x[1]      packing[48]  125
    x[1]      packing[49]  27
    x[1]      R52       1
    x[2]      OBJ       196
    x[2]      packing[1]  152
    x[2]      packing[2]  100
    x[2]      packing[3]  74
    x[2]      packing[4]  122
    x[2]      packing[5]  81
    x[2]      packing[6]  145
    x[2]      packing[7]  28
    x[2]      packing[8]  8
    x[2]      packing[10]  196
    x[2]      packing[11]  30
    x[2]      packing[12]  150
    x[2]      packing[13]  10
    x[2]      packing[14]  26
    x[2]      packing[15]  20
    x[2]      packing[16]  187
    x[2]      packing[17]  118
    x[2]      packing[18]  38
    x[2]      packing[19]  21
    x[2]      packing[20]  101
    x[2]      packing[21]  114
    x[2]      packing[22]  48
    x[2]      packing[23]  91
    x[2]      packing[24]  73
    x[2]      packing[25]  10
    x[2]      packing[26]  39
    x[2]      packing[28]  190
    x[2]      packing[29]  100
    x[2]      packing[30]  119
    x[2]      packing[31]  84
    x[2]      packing[32]  191
    x[2]      packing[34]  129
    x[2]      packing[35]  85
    x[2]      packing[36]  18
    x[2]      packing[37]  37
    x[2]      packing[38]  39
    x[2]      packing[39]  112
    x[2]      packing[40]  172
    x[2]      packing[41]  84
    x[2]      packing[42]  187
    x[2]      packing[44]  124
    x[2]      packing[45]  149
    x[2]      packing[46]  97
    x[2]      packing[47]  137
    x[2]      packing[48]  152
    x[3]      OBJ       113
    x[3]      packing[0]  74
    x[3]      packing[1]  185
    x[3]      packing[2]  15
    x[3]      packing[3]  16
    x[3]      packing[4]  13
    x[3]      packing[5]  18
    x[3]      packing[6]  163
    x[3]      packing[7]  130
    x[3]      packing[8]  154
    x[3]      packing[14]  118
    x[3]      packing[16]  60
    x[3]      packing[17]  27
    x[3]      packing[18]  14
    x[3]      packing[19]  181
    x[3]      packing[20]  12
    x[3]      packing[21]  46
    x[3]      packing[22]  98
    x[3]      packing[23]  17
    x[3]      packing[24]  199
    x[3]      packing[25]  30
    x[3]      packing[27]  10
    x[3]      packing[29]  127
    x[3]      packing[30]  177
    x[3]      packing[31]  105
    x[3]      packing[32]  100
    x[3]      packing[33]  19
    x[3]      packing[34]  12
    x[3]      packing[35]  185
    x[3]      packing[36]  66
    x[3]      packing[37]  135
    x[3]      packing[38]  181
    x[3]      packing[40]  56
    x[3]      packing[42]  121
    x[3]      packing[43]  175
    x[3]      packing[44]  178
    x[3]      packing[49]  38
    x[4]      OBJ       37
    x[4]      packing[0]  50
    x[4]      packing[1]  139
    x[4]      packing[3]  59
    x[4]      packing[5]  114
    x[4]      packing[11]  43
    x[4]      packing[12]  182
    x[4]      packing[13]  104
    x[4]      packing[15]  76
    x[4]      packing[16]  162
    x[4]      packing[17]  117
    x[4]      packing[20]  120
    x[4]      packing[21]  119
    x[4]      packing[25]  45
    x[4]      packing[26]  140
    x[4]      packing[27]  152
    x[4]      packing[29]  19
    x[4]      packing[31]  67
    x[4]      packing[34]  104
    x[4]      packing[37]  84
    x[4]      packing[38]  66
    x[4]      packing[39]  57
    x[4]      packing[40]  87
    x[4]      packing[41]  12
    x[4]      packing[43]  151
    x[4]      packing[45]  56
    x[4]      packing[46]  116
    x[4]      packing[47]  28
    x[4]      packing[48]  151
    x[4]      packing[49]  167
    x[5]      OBJ       100
    x[5]      packing[0]  164
    x[5]      packing[2]  12
    x[5]      packing[3]  32
    x[5]      packing[5]  99
    x[5]      packing[6]  160
    x[5]      packing[7]  106
    x[5]      packing[10]  160
    x[5]      packing[11]  109
    x[5]      packing[13]  158
    x[5]      packing[14]  164
    x[5]      packing[15]  100
    x[5]      packing[16]  184
    x[5]      packing[17]  163
    x[5]      packing[18]  84
    x[5]      packing[19]  163
    x[5]      packing[20]  161
    x[5]      packing[21]  128
    x[5]      packing[23]  132
    x[5]      packing[24]  31
    x[5]      packing[25]  51
    x[5]      packing[26]  75
    x[5]      packing[27]  118
    x[5]      packing[28]  183
    x[5]      packing[29]  54
    x[5]      packing[32]  80
    x[5]      packing[33]  173
    x[5]      packing[34]  148
    x[5]      packing[35]  137
    x[5]      packing[36]  137
    x[5]      packing[38]  130
    x[5]      packing[39]  193
    x[5]      packing[41]  128
    x[5]      packing[43]  33
    x[5]      packing[44]  40
    x[5]      packing[45]  199
    x[5]      packing[46]  44
    x[5]      packing[47]  171
    x[5]      packing[48]  30
    x[5]      packing[49]  195
    x[6]      OBJ       21
    x[6]      packing[1]  188
    x[6]      packing[2]  177
    x[6]      packing[3]  172
    x[6]      packing[4]  24
    x[6]      packing[5]  40
    x[6]      packing[6]  37
    x[6]      packing[7]  146
    x[6]      packing[8]  97
    x[6]      packing[9]  168
    x[6]      packing[10]  133
    x[6]      packing[11]  167
    x[6]      packing[12]  137
    x[6]      packing[13]  26
    x[6]      packing[14]  192
    x[6]      packing[16]  5
    x[6]      packing[17]  102
    x[6]      packing[19]  165
    x[6]      packing[20]  1
    x[6]      packing[21]  187
    x[6]      packing[23]  158
    x[6]      packing[24]  191
    x[6]      packing[25]  192
    x[6]      packing[26]  92
    x[6]      packing[27]  41
    x[6]      packing[29]  60
    x[6]      packing[30]  163
    x[6]      packing[32]  170
    x[6]      packing[34]  122
    x[6]      packing[38]  108
    x[6]      packing[39]  121
    x[6]      packing[41]  178
    x[6]      packing[42]  21
    x[6]      packing[43]  129
    x[6]      packing[44]  177
    x[6]      packing[45]  23
    x[6]      packing[46]  154
    x[6]      packing[47]  29
    x[6]      packing[48]  43
    x[6]      packing[49]  94
    x[7]      OBJ       71
    x[7]      packing[0]  149
    x[7]      packing[1]  41
    x[7]      packing[2]  77
    x[7]      packing[4]  21
    x[7]      packing[5]  187
    x[7]      packing[6]  107
    x[7]      packing[7]  38
    x[7]      packing[9]  71
    x[7]      packing[12]  52
    x[7]      packing[13]  146
    x[7]      packing[14]  68
    x[7]      packing[15]  110
    x[7]      packing[16]  185
    x[7]      packing[17]  64
    x[7]      packing[18]  16
    x[7]      packing[21]  81
    x[7]      packing[22]  98
    x[7]      packing[23]  82
    x[7]      packing[25]  187
    x[7]      packing[26]  96
    x[7]      packing[27]  46
    x[7]      packing[28]  95
    x[7]      packing[29]  157
    x[7]      packing[31]  169
    x[7]      packing[32]  191
    x[7]      packing[33]  128
    x[7]      packing[34]  48
    x[7]      packing[35]  199
    x[7]      packing[36]  52
    x[7]      packing[38]  100
    x[7]      packing[41]  140
    x[7]      packing[42]  19
    x[7]      packing[43]  116
    x[7]      packing[44]  182
    x[7]      packing[45]  33
    x[7]      packing[46]  145
    x[7]      packing[47]  130
    x[7]      packing[48]  102
    x[7]      packing[49]  6
    x[8]      OBJ       28
    x[8]      packing[0]  38
    x[8]      packing[1]  133
    x[8]      packing[2]  73
    x[8]      packing[3]  195
    x[8]      packing[4]  108
    x[8]      packing[5]  106
    x[8]      packing[7]  2
    x[8]      packing[8]  72
    x[8]      packing[10]  68
    x[8]      packing[11]  136
    x[8]      packing[12]  173
    x[8]      packing[13]  89
    x[8]      packing[16]  16
    x[8]      packing[17]  181
    x[8]      packing[18]  196
    x[8]      packing[22]  182
    x[8]      packing[23]  62
    x[8]      packing[24]  49
    x[8]      packing[25]  191
    x[8]      packing[26]  105
    x[8]      packing[27]  16
    x[8]      packing[29]  83
    x[8]      packing[30]  194
    x[8]      packing[31]  12
    x[8]      packing[32]  9
    x[8]      packing[33]  105
    x[8]      packing[34]  165
    x[8]      packing[35]  125
    x[8]      packing[36]  57
    x[8]      packing[37]  173
    x[8]      packing[38]  167
    x[8]      packing[39]  76
    x[8]      packing[41]  94
    x[8]      packing[42]  97
    x[8]      packing[43]  152
    x[8]      packing[44]  32
    x[8]      packing[45]  30
    x[8]      packing[46]  27
    x[8]      packing[47]  125
    x[8]      packing[48]  122
    x[8]      packing[49]  44
    x[9]      OBJ       82
    x[9]      packing[0]  116
    x[9]      packing[1]  142
    x[9]      packing[3]  60
    x[9]      packing[5]  114
    x[9]      packing[6]  192
    x[9]      packing[7]  192
    x[9]      packing[8]  115
    x[9]      packing[9]  12
    x[9]      packing[10]  94
    x[9]      packing[11]  56
    x[9]      packing[12]  123
    x[9]      packing[14]  127
    x[9]      packing[15]  53
    x[9]      packing[16]  146
    x[9]      packing[18]  27
    x[9]      packing[19]  28
    x[9]      packing[20]  80
    x[9]      packing[22]  138
    x[9]      packing[23]  199
    x[9]      packing[24]  57
    x[9]      packing[25]  127
    x[9]      packing[27]  5
    x[9]      packing[28]  122
    x[9]      packing[29]  127
    x[9]      packing[30]  98
    x[9]      packing[31]  62
    x[9]      packing[32]  189
    x[9]      packing[34]  149
    x[9]      packing[36]  61
    x[9]      packing[37]  15
    x[9]      packing[38]  49
    x[9]      packing[40]  60
    x[9]      packing[42]  99
    x[9]      packing[43]  117
    x[9]      packing[44]  63
    x[9]      packing[45]  110
    x[9]      packing[47]  89
    x[9]      packing[48]  97
    x[9]      packing[49]  137
    x[10]     OBJ       57
    x[10]     packing[0]  96
    x[10]     packing[1]  157
    x[10]     packing[2]  143
    x[10]     packing[3]  38
    x[10]     packing[4]  84
    x[10]     packing[5]  65
    x[10]     packing[6]  198
    x[10]     packing[8]  84
    x[10]     packing[9]  95
    x[10]     packing[10]  176
    x[10]     packing[12]  61
    x[10]     packing[13]  17
    x[10]     packing[14]  175
    x[10]     packing[15]  37
    x[10]     packing[16]  137
    x[10]     packing[17]  189
    x[10]     packing[18]  76
    x[10]     packing[19]  95
    x[10]     packing[21]  106
    x[10]     packing[22]  13
    x[10]     packing[23]  18
    x[10]     packing[24]  55
    x[10]     packing[26]  28
    x[10]     packing[27]  187
    x[10]     packing[28]  33
    x[10]     packing[29]  189
    x[10]     packing[31]  67
    x[10]     packing[32]  178
    x[10]     packing[33]  169
    x[10]     packing[34]  44
    x[10]     packing[35]  40
    x[10]     packing[36]  21
    x[10]     packing[37]  177
    x[10]     packing[38]  193
    x[10]     packing[41]  92
    x[10]     packing[42]  70
    x[10]     packing[43]  17
    x[10]     packing[44]  42
    x[10]     packing[45]  79
    x[10]     packing[47]  70
    x[10]     packing[48]  128
    x[11]     OBJ       31
    x[11]     packing[0]  196
    x[11]     packing[2]  127
    x[11]     packing[4]  157
    x[11]     packing[6]  66
    x[11]     packing[7]  97
    x[11]     packing[10]  2
    x[11]     packing[11]  175
    x[11]     packing[15]  86
    x[11]     packing[16]  196
    x[11]     packing[19]  129
    x[11]     packing[20]  161
    x[11]     packing[21]  54
    x[11]     packing[22]  6
    x[11]     packing[23]  184
    x[11]     packing[24]  28
    x[11]     packing[25]  5
    x[11]     packing[26]  57
    x[11]     packing[27]  187
    x[11]     packing[28]  21
    x[11]     packing[30]  32
    x[11]     packing[31]  42
    x[11]     packing[32]  131
    x[11]     packing[33]  58
    x[11]     packing[36]  47
    x[11]     packing[37]  47
    x[11]     packing[39]  197
    x[11]     packing[40]  173
    x[11]     packing[41]  139
    x[11]     packing[42]  102
    x[11]     packing[43]  179
    x[11]     packing[46]  116
    x[11]     packing[47]  61
    x[11]     packing[48]  80
    x[11]     packing[49]  2
    x[12]     OBJ       161
    x[12]     packing[0]  11
    x[12]     packing[2]  104
    x[12]     packing[3]  47
    x[12]     packing[4]  158
    x[12]     packing[5]  172
    x[12]     packing[6]  151
    x[12]     packing[7]  184
    x[12]     packing[8]  2
    x[12]     packing[9]  117
    x[12]     packing[10]  12
    x[12]     packing[11]  122
    x[12]     packing[15]  188
    x[12]     packing[16]  151
    x[12]     packing[17]  19
    x[12]     packing[18]  155
    x[12]     packing[19]  199
    x[12]     packing[20]  181
    x[12]     packing[21]  94
    x[12]     packing[22]  167
    x[12]     packing[24]  2
    x[12]     packing[26]  51
    x[12]     packing[27]  182
    x[12]     packing[30]  135
    x[12]     packing[31]  99
    x[12]     packing[33]  140
    x[12]     packing[34]  159
    x[12]     packing[35]  139
    x[12]     packing[36]  27
    x[12]     packing[38]  105
    x[12]     packing[39]  16
    x[12]     packing[40]  63
    x[12]     packing[41]  185
    x[12]     packing[42]  106
    x[12]     packing[43]  48
    x[12]     packing[44]  168
    x[12]     packing[45]  193
    x[12]     packing[46]  142
    x[12]     packing[47]  96
    x[12]     packing[48]  149
    x[12]     packing[49]  38
    x[13]     OBJ       165
    x[13]     packing[0]  72
    x[13]     packing[1]  31
    x[13]     packing[3]  12
    x[13]     packing[4]  17
    x[13]     packing[5]  96
    x[13]     packing[6]  148
    x[13]     packing[7]  165
    x[13]     packing[9]  172
    x[13]     packing[10]  3
    x[13]     packing[11]  43
    x[13]     packing[12]  48
    x[13]     packing[13]  52
    x[13]     packing[14]  67
    x[13]     packing[15]  158
    x[13]     packing[18]  69
    x[13]     packing[20]  109
    x[13]     packing[21]  181
    x[13]     packing[22]  71
    x[13]     packing[23]  103
    x[13]     packing[25]  84
    x[13]     packing[26]  158
    x[13]     packing[28]  61
    x[13]     packing[30]  60
    x[13]     packing[32]  77
    x[13]     packing[33]  86
    x[13]     packing[34]  60
    x[13]     packing[35]  153
    x[13]     packing[36]  25
    x[13]     packing[37]  84
    x[13]     packing[40]  188
    x[13]     packing[41]  191
    x[13]     packing[42]  35
    x[13]     packing[43]  64
    x[13]     packing[44]  120
    x[13]     packing[45]  107
    x[13]     packing[48]  131
    x[13]     R52       1
    x[14]     OBJ       197
    x[14]     packing[0]  56
    x[14]     packing[1]  135
    x[14]     packing[2]  31
    x[14]     packing[3]  15
    x[14]     packing[4]  121
    x[14]     packing[5]  156
    x[14]     packing[6]  68
    x[14]     packing[7]  56
    x[14]     packing[8]  49
    x[14]     packing[10]  116
    x[14]     packing[11]  27
    x[14]     packing[12]  191
    x[14]     packing[13]  19
    x[14]     packing[14]  193
    x[14]     packing[17]  81
    x[14]     packing[21]  158
    x[14]     packing[22]  33
    x[14]     packing[23]  125
    x[14]     packing[24]  164
    x[14]     packing[25]  185
    x[14]     packing[27]  87
    x[14]     packing[28]  59
    x[14]     packing[29]  120
    x[14]     packing[30]  155
    x[14]     packing[31]  97
    x[14]     packing[32]  18
    x[14]     packing[34]  88
    x[14]     packing[35]  63
    x[14]     packing[36]  191
    x[14]     packing[39]  75
    x[14]     packing[40]  185
    x[14]     packing[41]  64
    x[14]     packing[43]  24
    x[14]     packing[45]  184
    x[14]     packing[47]  56
    x[15]     OBJ       149
    x[15]     packing[0]  77
    x[15]     packing[1]  162
    x[15]     packing[2]  128
    x[15]     packing[3]  121
    x[15]     packing[4]  92
    x[15]     packing[5]  67
    x[15]     packing[6]  116
    x[15]     packing[7]  153
    x[15]     packing[8]  18
    x[15]     packing[9]  18
    x[15]     packing[10]  90
    x[15]     packing[11]  38
    x[15]     packing[12]  78
    x[15]     packing[13]  146
    x[15]     packing[14]  133
    x[15]     packing[15]  22
    x[15]     packing[16]  34
    x[15]     packing[17]  36
    x[15]     packing[19]  49
    x[15]     packing[20]  143
    x[15]     packing[21]  83
    x[15]     packing[22]  76
    x[15]     packing[23]  135
    x[15]     packing[25]  18
    x[15]     packing[26]  36
    x[15]     packing[28]  103
    x[15]     packing[30]  135
    x[15]     packing[31]  162
    x[15]     packing[32]  62
    x[15]     packing[33]  122
    x[15]     packing[34]  29
    x[15]     packing[36]  93
    x[15]     packing[37]  48
    x[15]     packing[39]  102
    x[15]     packing[40]  187
    x[15]     packing[41]  125
    x[15]     packing[42]  86
    x[15]     packing[43]  65
    x[15]     packing[47]  17
    x[15]     packing[48]  83
    x[16]     OBJ       33
    x[16]     packing[0]  93
    x[16]     packing[1]  80
    x[16]     packing[2]  83
    x[16]     packing[3]  39
    x[16]     packing[4]  99
    x[16]     packing[5]  16
    x[16]     packing[6]  143
    x[16]     packing[7]  124
    x[16]     packing[9]  26
    x[16]     packing[10]  51
    x[16]     packing[13]  68
    x[16]     packing[15]  39
    x[16]     packing[16]  44
    x[16]     packing[18]  45
    x[16]     packing[19]  52
    x[16]     packing[20]  126
    x[16]     packing[21]  128
    x[16]     packing[22]  110
    x[16]     packing[24]  192
    x[16]     packing[26]  24
    x[16]     packing[28]  28
    x[16]     packing[29]  90
    x[16]     packing[30]  11
    x[16]     packing[31]  182
    x[16]     packing[32]  160
    x[16]     packing[34]  98
    x[16]     packing[35]  61
    x[16]     packing[36]  44
    x[16]     packing[38]  24
    x[16]     packing[39]  196
    x[16]     packing[40]  172
    x[16]     packing[42]  59
    x[16]     packing[43]  135
    x[16]     packing[45]  153
    x[16]     packing[46]  153
    x[16]     packing[47]  182
    x[17]     OBJ       181
    x[17]     packing[1]  175
    x[17]     packing[4]  189
    x[17]     packing[5]  122
    x[17]     packing[6]  17
    x[17]     packing[7]  96
    x[17]     packing[8]  92
    x[17]     packing[9]  47
    x[17]     packing[10]  10
    x[17]     packing[11]  64
    x[17]     packing[12]  178
    x[17]     packing[13]  164
    x[17]     packing[16]  139
    x[17]     packing[18]  90
    x[17]     packing[19]  6
    x[17]     packing[22]  95
    x[17]     packing[23]  91
    x[17]     packing[24]  79
    x[17]     packing[25]  93
    x[17]     packing[26]  167
    x[17]     packing[27]  88
    x[17]     packing[28]  82
    x[17]     packing[29]  67
    x[17]     packing[30]  55
    x[17]     packing[31]  155
    x[17]     packing[32]  40
    x[17]     packing[33]  99
    x[17]     packing[34]  178
    x[17]     packing[35]  115
    x[17]     packing[36]  59
    x[17]     packing[37]  48
    x[17]     packing[39]  136
    x[17]     packing[40]  30
    x[17]     packing[41]  100
    x[17]     packing[42]  70
    x[17]     packing[45]  185
    x[17]     packing[46]  108
    x[17]     packing[47]  140
    x[17]     packing[49]  71
    x[17]     R52       1
    x[18]     OBJ       5
    x[18]     packing[2]  104
    x[18]     packing[4]  185
    x[18]     packing[5]  75
    x[18]     packing[6]  79
    x[18]     packing[7]  48
    x[18]     packing[8]  26
    x[18]     packing[11]  129
    x[18]     packing[12]  196
    x[18]     packing[13]  64
    x[18]     packing[14]  144
    x[18]     packing[15]  132
    x[18]     packing[16]  106
    x[18]     packing[18]  88
    x[18]     packing[20]  131
    x[18]     packing[21]  37
    x[18]     packing[22]  157
    x[18]     packing[23]  176
    x[18]     packing[24]  172
    x[18]     packing[25]  98
    x[18]     packing[26]  71
    x[18]     packing[27]  74
    x[18]     packing[28]  6
    x[18]     packing[29]  144
    x[18]     packing[31]  93
    x[18]     packing[32]  19
    x[18]     packing[33]  124
    x[18]     packing[34]  79
    x[18]     packing[35]  34
    x[18]     packing[37]  140
    x[18]     packing[38]  176
    x[18]     packing[39]  196
    x[18]     packing[40]  90
    x[18]     packing[41]  148
    x[18]     packing[42]  146
    x[18]     packing[43]  72
    x[18]     packing[44]  195
    x[18]     packing[45]  74
    x[18]     packing[46]  116
    x[18]     packing[47]  47
    x[18]     packing[48]  6
    x[19]     OBJ       140
    x[19]     packing[0]  196
    x[19]     packing[1]  16
    x[19]     packing[2]  109
    x[19]     packing[3]  129
    x[19]     packing[4]  139
    x[19]     packing[5]  43
    x[19]     packing[7]  75
    x[19]     packing[8]  187
    x[19]     packing[9]  63
    x[19]     packing[10]  142
    x[19]     packing[11]  100
    x[19]     packing[12]  60
    x[19]     packing[13]  135
    x[19]     packing[14]  148
    x[19]     packing[15]  153
    x[19]     packing[16]  1
    x[19]     packing[17]  199
    x[19]     packing[18]  7
    x[19]     packing[19]  174
    x[19]     packing[20]  130
    x[19]     packing[21]  128
    x[19]     packing[22]  117
    x[19]     packing[24]  13
    x[19]     packing[25]  191
    x[19]     packing[26]  124
    x[19]     packing[27]  120
    x[19]     packing[28]  116
    x[19]     packing[29]  40
    x[19]     packing[30]  5
    x[19]     packing[31]  16
    x[19]     packing[32]  99
    x[19]     packing[34]  14
    x[19]     packing[35]  187
    x[19]     packing[36]  76
    x[19]     packing[38]  126
    x[19]     packing[39]  14
    x[19]     packing[41]  72
    x[19]     packing[42]  198
    x[19]     packing[43]  34
    x[19]     packing[44]  23
    x[19]     packing[45]  131
    x[19]     packing[46]  96
    x[19]     packing[48]  147
    x[19]     packing[49]  144
    x[19]     R52       1
    x[20]     OBJ       190
    x[20]     packing[0]  149
    x[20]     packing[1]  41
    x[20]     packing[5]  181
    x[20]     packing[7]  172
    x[20]     packing[8]  8
    x[20]     packing[9]  78
    x[20]     packing[10]  43
    x[20]     packing[11]  35
    x[20]     packing[12]  70
    x[20]     packing[13]  96
    x[20]     packing[14]  79
    x[20]     packing[15]  115
    x[20]     packing[16]  19
    x[20]     packing[17]  198
    x[20]     packing[18]  116
    x[20]     packing[20]  89
    x[20]     packing[21]  27
    x[20]     packing[22]  14
    x[20]     packing[23]  70
    x[20]     packing[24]  65
    x[20]     packing[25]  144
    x[20]     packing[26]  10
    x[20]     packing[27]  30
    x[20]     packing[28]  151
    x[20]     packing[29]  97
    x[20]     packing[30]  113
    x[20]     packing[31]  179
    x[20]     packing[32]  135
    x[20]     packing[33]  175
    x[20]     packing[34]  45
    x[20]     packing[35]  11
    x[20]     packing[36]  54
    x[20]     packing[37]  167
    x[20]     packing[38]  73
    x[20]     packing[43]  28
    x[20]     packing[45]  129
    x[20]     packing[46]  137
    x[20]     R52       1
    MARKER    'MARKER'                 'INTEND'
RHS
    RHS1      packing[0]  822
    RHS1      packing[1]  941
    RHS1      packing[2]  717
    RHS1      packing[3]  530
    RHS1      packing[4]  765
    RHS1      packing[5]  896
    RHS1      packing[6]  895
    RHS1      packing[7]  934
    RHS1      packing[8]  486
    RHS1      packing[9]  509
    RHS1      packing[10]  648
    RHS1      packing[11]  685
    RHS1      packing[12]  948
    RHS1      packing[13]  647
    RHS1      packing[14]  896
    RHS1      packing[15]  734
    RHS1      packing[16]  945
    RHS1      packing[17]  758
    RHS1      packing[18]  557
    RHS1      packing[19]  695
    RHS1      packing[20]  774
    RHS1      packing[21]  877
    RHS1      packing[22]  712
    RHS1      packing[23]  832
    RHS1      packing[24]  779
    RHS1      packing[25]  914
    RHS1      packing[26]  682
    RHS1      packing[27]  672
    RHS1      packing[28]  625
    RHS1      packing[29]  759
    RHS1      packing[30]  797
    RHS1      packing[31]  796
    RHS1      packing[32]  925
    RHS1      packing[33]  716
    RHS1      packing[34]  895
    RHS1      packing[35]  795
    RHS1      packing[36]  521
    RHS1      packing[37]  578
    RHS1      packing[38]  860
    RHS1      packing[39]  777
    RHS1      packing[40]  749
    RHS1      packing[41]  891
    RHS1      packing[42]  708
    RHS1      packing[43]  806
    RHS1      packing[44]  732
    RHS1      packing[45]  947
    RHS1      packing[46]  813
    RHS1      packing[47]  742
    RHS1      packing[48]  773
    RHS1      packing[49]  482
    RHS1      R52       4
BOUNDS
 BV BND1      x[1]    
 BV BND1      x[2]    
 BV BND1      x[3]    
 BV BND1      x[4]    
 BV BND1      x[5]    
 BV BND1      x[6]    
 BV BND1      x[7]    
 BV BND1      x[8]    
 BV BND1      x[9]    
 BV BND1      x[10]   
 BV BND1      x[11]   
 BV BND1      x[12]   
 BV BND1      x[13]   
 BV BND1      x[14]   
 BV BND1      x[15]   
 BV BND1      x[16]   
 BV BND1      x[17]   
 BV BND1      x[18]   
 BV BND1      x[19]   
 BV BND1      x[20]   
ENDATA
